5 5
4 4 1 10 2 9 3 17 5 19 3 5 15 3 13 1 2 1 4 6 3 4 4 1 16 3 16
8 4 4 3 1 16 3 10 2 16 5 5 3 2 7 3 10 1 14 4 8 1 4 16 3 4 15 3 19 5 3 2 1 5 5 4 3 5 12 2 9 3 7 3 2 6 4 8 3 14 5 1 9 4 13 2 3 3 10 5 17
5 4 4 19 5 12 1 7 2 14 4 5 5 2 5 1 6 3 2 4 3 6 2 15 5 13 1 7 2 5 7 4 19 2 4 14 2 15
4 1 5 12 3 5 3 1 18 4 10 5 1 20 5 7 2 17 3 7 4 10 1 1 11
8 3 1 3 2 12 3 7 3 4 3 2 12 5 4 5 1 6 3 11 2 16 5 5 4 10 5 3 18 4 18 2 15 5 8 1 14 3 4 18 1 17 2 7 2 2 10 4 19 2 2 3 5 13 3 5 9 2 18 3 20